c colouring generated by benchmark framework
p edge 862 861
v 1 0
v 2 2
v 3 1
v 4 0
v 5 1
v 6 1
v 7 0
v 8 2
v 9 0
v 10 1
v 11 1
v 12 0
v 13 1
v 14 1
v 15 0
v 16 0
v 17 2
v 18 1
v 19 2
v 20 1
v 21 1
v 22 0
v 23 2
v 24 1
v 25 0
v 26 1
v 27 0
v 28 1
v 29 2
v 30 1
v 31 0
v 32 0
v 33 1
v 34 1
v 35 2
v 36 0
v 37 2
v 38 1
v 39 0
v 40 1
v 41 1
v 42 2
v 43 0
v 44 0
v 45 2
v 46 0
v 47 2
v 48 2
v 49 0
v 50 2
v 51 0
v 52 1
v 53 1
v 54 0
v 55 2
v 56 0
v 57 0
v 58 0
v 59 0
v 60 1
v 61 0
v 62 0
v 63 0
v 64 2
v 65 0
v 66 1
v 67 0
v 68 1
v 69 2
v 70 2
v 71 2
v 72 0
v 73 0
v 74 0
v 75 1
v 76 0
v 77 0
v 78 0
v 79 1
v 80 1
v 81 0
v 82 0
v 83 1
v 84 1
v 85 0
v 86 0
v 87 2
v 88 0
v 89 0
v 90 1
v 91 1
v 92 1
v 93 0
v 94 0
v 95 1
v 96 2
v 97 1
v 98 0
v 99 0
v 100 2
v 101 1
v 102 1
v 103 1
v 104 0
v 105 1
v 106 0
v 107 0
v 108 0
v 109 0
v 110 0
v 111 2
v 112 0
v 113 0
v 114 0
v 115 2
v 116 1
v 117 1
v 118 1
v 119 0
v 120 1
v 121 2
v 122 2
v 123 1
v 124 2
v 125 0
v 126 1
v 127 0
v 128 0
v 129 0
v 130 1
v 131 2
v 132 2
v 133 1
v 134 1
v 135 2
v 136 2
v 137 0
v 138 1
v 139 1
v 140 0
v 141 1
v 142 1
v 143 1
v 144 0
v 145 0
v 146 0
v 147 1
v 148 1
v 149 2
v 150 0
v 151 2
v 152 0
v 153 0
v 154 0
v 155 1
v 156 1
v 157 0
v 158 0
v 159 2
v 160 0
v 161 1
v 162 0
v 163 1
v 164 2
v 165 0
v 166 0
v 167 1
v 168 2
v 169 0
v 170 2
v 171 1
v 172 2
v 173 2
v 174 0
v 175 2
v 176 1
v 177 1
v 178 1
v 179 0
v 180 1
v 181 1
v 182 2
v 183 2
v 184 0
v 185 0
v 186 2
v 187 0
v 188 1
v 189 0
v 190 0
v 191 1
v 192 0
v 193 1
v 194 2
v 195 0
v 196 1
v 197 2
v 198 1
v 199 0
v 200 0
v 201 0
v 202 0
v 203 0
v 204 0
v 205 1
v 206 2
v 207 0
v 208 1
v 209 1
v 210 0
v 211 1
v 212 0
v 213 1
v 214 1
v 215 1
v 216 1
v 217 0
v 218 1
v 219 1
v 220 0
v 221 1
v 222 0
v 223 1
v 224 2
v 225 1
v 226 1
v 227 0
v 228 1
v 229 1
v 230 2
v 231 0
v 232 1
v 233 1
v 234 0
v 235 0
v 236 1
v 237 1
v 238 0
v 239 1
v 240 2
v 241 1
v 242 2
v 243 1
v 244 0
v 245 0
v 246 0
v 247 1
v 248 1
v 249 1
v 250 1
v 251 1
v 252 1
v 253 2
v 254 1
v 255 1
v 256 0
v 257 0
v 258 2
v 259 0
v 260 0
v 261 1
v 262 1
v 263 1
v 264 1
v 265 1
v 266 0
v 267 2
v 268 2
v 269 2
v 270 2
v 271 0
v 272 1
v 273 1
v 274 2
v 275 0
v 276 0
v 277 1
v 278 2
v 279 1
v 280 2
v 281 1
v 282 2
v 283 0
v 284 1
v 285 2
v 286 1
v 287 0
v 288 1
v 289 1
v 290 2
v 291 0
v 292 2
v 293 1
v 294 2
v 295 0
v 296 0
v 297 2
v 298 1
v 299 1
v 300 1
v 301 0
v 302 2
v 303 2
v 304 0
v 305 0
v 306 1
v 307 1
v 308 1
v 309 2
v 310 0
v 311 2
v 312 2
v 313 0
v 314 1
v 315 1
v 316 2
v 317 1
v 318 0
v 319 2
v 320 1
v 321 2
v 322 1
v 323 1
v 324 2
v 325 1
v 326 0
v 327 2
v 328 2
v 329 0
v 330 2
v 331 1
v 332 1
v 333 0
v 334 2
v 335 1
v 336 0
v 337 0
v 338 2
v 339 2
v 340 2
v 341 2
v 342 0
v 343 1
v 344 1
v 345 2
v 346 2
v 347 1
v 348 0
v 349 1
v 350 0
v 351 2
v 352 0
v 353 0
v 354 1
v 355 2
v 356 0
v 357 2
v 358 2
v 359 1
v 360 2
v 361 0
v 362 0
v 363 1
v 364 0
v 365 1
v 366 0
v 367 0
v 368 0
v 369 2
v 370 2
v 371 0
v 372 1
v 373 0
v 374 2
v 375 0
v 376 2
v 377 2
v 378 1
v 379 2
v 380 1
v 381 0
v 382 1
v 383 0
v 384 0
v 385 1
v 386 2
v 387 0
v 388 2
v 389 0
v 390 1
v 391 0
v 392 0
v 393 1
v 394 1
v 395 0
v 396 2
v 397 0
v 398 0
v 399 1
v 400 0
v 401 0
v 402 0
v 403 1
v 404 1
v 405 0
v 406 0
v 407 2
v 408 0
v 409 0
v 410 2
v 411 0
v 412 1
v 413 0
v 414 0
v 415 0
v 416 0
v 417 0
v 418 1
v 419 0
v 420 0
v 421 1
v 422 1
v 423 0
v 424 0
v 425 1
v 426 1
v 427 0
v 428 2
v 429 2
v 430 0
v 431 0
v 432 1
v 433 2
v 434 2
v 435 1
v 436 2
v 437 0
v 438 1
v 439 1
v 440 2
v 441 0
v 442 1
v 443 0
v 444 2
v 445 0
v 446 0
v 447 0
v 448 1
v 449 0
v 450 2
v 451 2
v 452 0
v 453 1
v 454 0
v 455 1
v 456 2
v 457 1
v 458 0
v 459 2
v 460 0
v 461 0
v 462 0
v 463 2
v 464 1
v 465 1
v 466 1
v 467 2
v 468 1
v 469 0
v 470 0
v 471 0
v 472 1
v 473 0
v 474 0
v 475 1
v 476 1
v 477 0
v 478 0
v 479 1
v 480 1
v 481 2
v 482 1
v 483 1
v 484 0
v 485 0
v 486 1
v 487 0
v 488 0
v 489 0
v 490 0
v 491 2
v 492 2
v 493 2
v 494 2
v 495 0
v 496 2
v 497 1
v 498 1
v 499 1
v 500 0
v 501 2
v 502 1
v 503 2
v 504 0
v 505 2
v 506 2
v 507 0
v 508 0
v 509 1
v 510 0
v 511 0
v 512 0
v 513 2
v 514 0
v 515 2
v 516 2
v 517 0
v 518 0
v 519 0
v 520 2
v 521 1
v 522 2
v 523 0
v 524 2
v 525 0
v 526 2
v 527 2
v 528 2
v 529 0
v 530 2
v 531 0
v 532 0
v 533 1
v 534 0
v 535 1
v 536 0
v 537 1
v 538 0
v 539 1
v 540 1
v 541 2
v 542 2
v 543 2
v 544 0
v 545 2
v 546 1
v 547 0
v 548 0
v 549 0
v 550 0
v 551 0
v 552 0
v 553 1
v 554 2
v 555 1
v 556 1
v 557 0
v 558 0
v 559 1
v 560 2
v 561 0
v 562 1
v 563 1
v 564 0
v 565 2
v 566 1
v 567 0
v 568 2
v 569 0
v 570 0
v 571 0
v 572 1
v 573 0
v 574 0
v 575 1
v 576 1
v 577 2
v 578 0
v 579 1
v 580 2
v 581 1
v 582 0
v 583 2
v 584 0
v 585 0
v 586 0
v 587 0
v 588 0
v 589 2
v 590 2
v 591 1
v 592 0
v 593 0
v 594 2
v 595 0
v 596 0
v 597 0
v 598 0
v 599 1
v 600 0
v 601 0
v 602 1
v 603 1
v 604 0
v 605 1
v 606 2
v 607 1
v 608 2
v 609 2
v 610 1
v 611 2
v 612 0
v 613 0
v 614 0
v 615 2
v 616 1
v 617 1
v 618 2
v 619 0
v 620 2
v 621 2
v 622 1
v 623 1
v 624 1
v 625 1
v 626 0
v 627 2
v 628 1
v 629 2
v 630 0
v 631 0
v 632 2
v 633 0
v 634 0
v 635 2
v 636 0
v 637 0
v 638 0
v 639 0
v 640 1
v 641 2
v 642 2
v 643 2
v 644 1
v 645 1
v 646 1
v 647 1
v 648 1
v 649 1
v 650 2
v 651 2
v 652 2
v 653 1
v 654 1
v 655 0
v 656 1
v 657 0
v 658 0
v 659 1
v 660 1
v 661 0
v 662 2
v 663 0
v 664 2
v 665 0
v 666 1
v 667 2
v 668 2
v 669 0
v 670 2
v 671 1
v 672 0
v 673 0
v 674 1
v 675 2
v 676 0
v 677 2
v 678 1
v 679 2
v 680 1
v 681 0
v 682 0
v 683 0
v 684 2
v 685 0
v 686 2
v 687 0
v 688 1
v 689 0
v 690 1
v 691 2
v 692 2
v 693 2
v 694 2
v 695 0
v 696 0
v 697 0
v 698 2
v 699 0
v 700 2
v 701 1
v 702 0
v 703 2
v 704 0
v 705 0
v 706 0
v 707 1
v 708 2
v 709 0
v 710 0
v 711 0
v 712 0
v 713 1
v 714 1
v 715 0
v 716 0
v 717 0
v 718 1
v 719 0
v 720 2
v 721 1
v 722 0
v 723 1
v 724 0
v 725 2
v 726 1
v 727 0
v 728 1
v 729 1
v 730 0
v 731 1
v 732 2
v 733 0
v 734 1
v 735 2
v 736 1
v 737 0
v 738 1
v 739 1
v 740 0
v 741 1
v 742 0
v 743 1
v 744 0
v 745 0
v 746 2
v 747 0
v 748 1
v 749 0
v 750 0
v 751 2
v 752 1
v 753 0
v 754 2
v 755 1
v 756 2
v 757 2
v 758 0
v 759 2
v 760 0
v 761 0
v 762 2
v 763 1
v 764 0
v 765 2
v 766 2
v 767 0
v 768 0
v 769 2
v 770 0
v 771 0
v 772 0
v 773 1
v 774 1
v 775 1
v 776 2
v 777 2
v 778 2
v 779 2
v 780 2
v 781 1
v 782 2
v 783 0
v 784 1
v 785 2
v 786 1
v 787 0
v 788 0
v 789 1
v 790 2
v 791 2
v 792 0
v 793 0
v 794 2
v 795 1
v 796 0
v 797 2
v 798 0
v 799 0
v 800 2
v 801 0
v 802 1
v 803 0
v 804 0
v 805 1
v 806 0
v 807 1
v 808 2
v 809 1
v 810 0
v 811 2
v 812 1
v 813 1
v 814 1
v 815 0
v 816 0
v 817 0
v 818 1
v 819 2
v 820 2
v 821 1
v 822 2
v 823 1
v 824 0
v 825 1
v 826 2
v 827 2
v 828 0
v 829 2
v 830 2
v 831 1
v 832 0
v 833 1
v 834 0
v 835 2
v 836 0
v 837 0
v 838 1
v 839 1
v 840 0
v 841 2
v 842 1
v 843 1
v 844 0
v 845 0
v 846 1
v 847 0
v 848 0
v 849 1
v 850 1
v 851 1
v 852 2
v 853 0
v 854 1
v 855 2
v 856 0
v 857 1
v 858 1
v 859 0
v 860 1
v 861 0
v 862 2
